p edge 100 197
e 1 2
e 1 3
e 1 5
e 1 6
e 1 10
e 1 22
e 1 56
e 1 79
e 1 97
e 2 3
e 2 4
e 2 6
e 2 7
e 2 10
e 2 11
e 2 13
e 2 16
e 2 18
e 2 21
e 2 23
e 2 24
e 2 27
e 2 28
e 2 30
e 2 35
e 2 36
e 2 37
e 2 38
e 2 40
e 2 41
e 2 47
e 2 60
e 2 66
e 2 80
e 2 87
e 3 4
e 3 5
e 3 7
e 3 8
e 3 9
e 3 12
e 3 19
e 3 21
e 3 22
e 3 25
e 3 26
e 3 28
e 3 29
e 3 35
e 3 47
e 3 50
e 3 65
e 3 76
e 3 84
e 4 14
e 4 15
e 4 17
e 4 18
e 4 41
e 4 43
e 4 49
e 4 69
e 4 78
e 4 85
e 5 14
e 5 24
e 5 73
e 6 34
e 7 8
e 7 11
e 7 12
e 7 19
e 7 20
e 7 23
e 7 38
e 7 53
e 8 9
e 8 13
e 8 17
e 8 25
e 8 26
e 8 29
e 8 33
e 8 40
e 8 42
e 8 46
e 8 48
e 8 50
e 8 52
e 8 54
e 8 62
e 8 66
e 8 93
e 8 95
e 9 27
e 9 74
e 10 31
e 10 42
e 12 15
e 12 16
e 12 91
e 13 36
e 13 39
e 13 78
e 14 31
e 14 45
e 14 51
e 14 81
e 15 32
e 15 46
e 15 63
e 15 69
e 15 71
e 16 20
e 17 95
e 18 30
e 18 44
e 18 83
e 19 45
e 19 53
e 19 55
e 19 56
e 19 60
e 19 62
e 19 65
e 20 73
e 20 83
e 21 68
e 23 32
e 23 57
e 23 59
e 23 67
e 23 94
e 24 43
e 24 48
e 25 52
e 27 49
e 27 67
e 27 81
e 27 97
e 28 54
e 28 76
e 28 99
e 30 33
e 30 34
e 30 71
e 31 90
e 32 72
e 33 72
e 33 75
e 35 37
e 35 39
e 35 44
e 35 58
e 35 77
e 35 100
e 36 61
e 37 59
e 37 77
e 37 82
e 38 63
e 38 70
e 38 92
e 38 98
e 39 92
e 41 75
e 42 55
e 42 58
e 43 57
e 43 64
e 44 80
e 45 94
e 46 79
e 46 82
e 48 51
e 48 64
e 50 74
e 50 88
e 52 88
e 53 93
e 57 61
e 61 68
e 61 70
e 61 86
e 61 90
e 65 84
e 65 89
e 66 91
e 70 85
e 75 96
e 76 100
e 83 87
e 84 96
e 85 86
e 86 98
e 86 99
e 87 89
